NAME : portcgen-29-26
COMMENT : portcgen N=29, seed=26
TYPE : TSP
DIMENSION : 29
EDGE_WEIGHT_TYPE : EUC_2D
NODE_COORD_SECTION
1 -154108 -50212
2 133661 -202609
3 -7579 -73982
4 -196946 306873
5 -158218 76585
6 155798 6041
7 -81836 19183
8 -306617 -92218
9 57784 202527
10 -43327 -313881
11 -251955 282892
12 -135519 -58724
13 -102202 201700
14 -143939 -244736
15 247360 -489253
16 36991 -185443
17 256328 174162
18 -158699 -283605
19 122301 33442
20 258675 -78678
21 -409707 197131
22 -105159 165367
23 330833 -466959
24 369937 203099
25 -400994 -271174
26 51187 347051
27 220025 -200923
28 -337728 -225063
29 -134524 -69246
